2280.79
0 8 17 5 91 96 95 2 4 9 0
0 11 10 12 55 15 14 13 0
0 19 20 25 23 22 21 16 0
0 36 46 18 31 30 29 26 28 0
0 38 37 32 35 34 33 39 0
0 50 51 47 45 44 43 42 41 40 0
0 48 52 27 87 0
0 63 64 62 59 57 56 58 53 0
0 90 66 65 68 67 0
0 75 72 74 73 76 77 78 71 70 0
0 84 83 82 7 81 79 80 0
0 98 85 86 60 6 0
0 99 93 97 92 94 54 89 0
0 61 100 24 3 49 88 69 1 0
